(set-info :smt-lib-version 2.6)
(set-logic QF_NIA)
(set-info :source |
Generated by: Cristina Borralleras, Daniel Larraz, Albert Oliveras, Enric Rodriguez-Carbonell, Albert Rubio
Generated on: 2017-04-27
Generator: VeryMax
Application: Termination proving
Target solver: barcelogic
|)
(set-info :license "https://creativecommons.org/licenses/by/4.0/")
(set-info :category "industrial")
(set-info :status sat)
(declare-fun Nl2main_x1 () Int)
(declare-fun Nl2main_y1 () Int)
(declare-fun Nl2main_tmp1 () Int)
(declare-fun Nl2main_xtmp1 () Int)
(declare-fun Nl10main_x1 () Int)
(declare-fun Nl10main_y1 () Int)
(declare-fun Nl10main_tmp1 () Int)
(declare-fun Nl10main_xtmp1 () Int)
(declare-fun Nl2main_x2 () Int)
(declare-fun Nl2main_y2 () Int)
(declare-fun Nl2main_tmp2 () Int)
(declare-fun Nl2main_xtmp2 () Int)
(declare-fun Nl10main_x2 () Int)
(declare-fun Nl10main_y2 () Int)
(declare-fun Nl10main_tmp2 () Int)
(declare-fun Nl10main_xtmp2 () Int)
(declare-fun Nl2main_x3 () Int)
(declare-fun Nl2main_y3 () Int)
(declare-fun Nl2main_tmp3 () Int)
(declare-fun Nl2main_xtmp3 () Int)
(declare-fun Nl10main_x3 () Int)
(declare-fun Nl10main_y3 () Int)
(declare-fun Nl10main_tmp3 () Int)
(declare-fun Nl10main_xtmp3 () Int)
(declare-fun lam0n0 () Int)
(declare-fun lam0n1 () Int)
(declare-fun lam0n3 () Int)
(declare-fun lam0n4 () Int)
(declare-fun lam0n5 () Int)
(declare-fun Nl2CT1 () Int)
(declare-fun Nl2CT2 () Int)
(declare-fun Nl2CT3 () Int)
(declare-fun lam0n2 () Int)
(declare-fun lam1n0 () Int)
(declare-fun lam1n1 () Int)
(declare-fun lam1n3 () Int)
(declare-fun lam1n4 () Int)
(declare-fun lam1n5 () Int)
(declare-fun lam1n2 () Int)
(declare-fun lam2n0 () Int)
(declare-fun lam2n1 () Int)
(declare-fun lam2n3 () Int)
(declare-fun lam2n4 () Int)
(declare-fun lam2n5 () Int)
(declare-fun lam2n2 () Int)
(declare-fun lam3n0 () Int)
(declare-fun lam3n1 () Int)
(declare-fun lam3n3 () Int)
(declare-fun lam3n4 () Int)
(declare-fun lam3n5 () Int)
(declare-fun lam3n2 () Int)
(declare-fun lam4n0 () Int)
(declare-fun lam4n1 () Int)
(declare-fun lam4n2 () Int)
(declare-fun lam4n3 () Int)
(declare-fun lam4n4 () Int)
(declare-fun lam4n5 () Int)
(declare-fun lam5n0 () Int)
(declare-fun lam5n1 () Int)
(declare-fun lam5n2 () Int)
(declare-fun lam5n3 () Int)
(declare-fun lam5n4 () Int)
(declare-fun lam5n5 () Int)
(declare-fun Nl10CT1 () Int)
(declare-fun lam6n0 () Int)
(declare-fun lam6n1 () Int)
(declare-fun lam6n2 () Int)
(declare-fun lam6n3 () Int)
(declare-fun lam6n4 () Int)
(declare-fun lam6n5 () Int)
(declare-fun Nl10CT2 () Int)
(declare-fun lam7n0 () Int)
(declare-fun lam7n1 () Int)
(declare-fun lam7n2 () Int)
(declare-fun lam7n3 () Int)
(declare-fun lam7n4 () Int)
(declare-fun lam7n5 () Int)
(declare-fun Nl10CT3 () Int)
(declare-fun lam8n0 () Int)
(declare-fun lam8n1 () Int)
(declare-fun lam8n2 () Int)
(declare-fun lam8n3 () Int)
(declare-fun lam8n4 () Int)
(declare-fun lam8n5 () Int)
(declare-fun lam9n0 () Int)
(declare-fun lam9n1 () Int)
(declare-fun lam9n2 () Int)
(declare-fun lam9n3 () Int)
(declare-fun lam9n4 () Int)
(declare-fun lam9n5 () Int)
(declare-fun lam10n0 () Int)
(declare-fun lam10n1 () Int)
(declare-fun lam10n2 () Int)
(declare-fun lam10n3 () Int)
(declare-fun lam10n4 () Int)
(declare-fun lam10n5 () Int)
(declare-fun lam11n0 () Int)
(declare-fun lam11n1 () Int)
(declare-fun lam11n2 () Int)
(declare-fun lam11n3 () Int)
(declare-fun lam11n4 () Int)
(declare-fun lam11n5 () Int)
(declare-fun lam12n0 () Int)
(declare-fun lam12n1 () Int)
(declare-fun lam12n2 () Int)
(declare-fun lam12n3 () Int)
(declare-fun lam12n4 () Int)
(declare-fun lam13n0 () Int)
(declare-fun lam13n1 () Int)
(declare-fun lam13n2 () Int)
(declare-fun lam13n3 () Int)
(declare-fun lam13n4 () Int)
(declare-fun lam14n0 () Int)
(declare-fun lam14n1 () Int)
(declare-fun lam14n2 () Int)
(declare-fun lam14n3 () Int)
(declare-fun lam14n4 () Int)
(declare-fun lam15n0 () Int)
(declare-fun lam15n1 () Int)
(declare-fun lam15n2 () Int)
(declare-fun lam15n3 () Int)
(declare-fun lam15n4 () Int)
(declare-fun lam16n0 () Int)
(declare-fun lam16n1 () Int)
(declare-fun lam16n2 () Int)
(declare-fun lam16n3 () Int)
(declare-fun lam16n4 () Int)
(declare-fun lam17n0 () Int)
(declare-fun lam17n1 () Int)
(declare-fun lam17n2 () Int)
(declare-fun lam17n3 () Int)
(declare-fun lam17n4 () Int)
(declare-fun lam18n0 () Int)
(declare-fun lam18n1 () Int)
(declare-fun lam18n2 () Int)
(declare-fun lam18n3 () Int)
(declare-fun lam18n4 () Int)
(declare-fun lam19n0 () Int)
(declare-fun lam19n1 () Int)
(declare-fun lam19n2 () Int)
(declare-fun lam19n3 () Int)
(declare-fun lam19n4 () Int)
(declare-fun lam20n0 () Int)
(declare-fun lam20n1 () Int)
(declare-fun lam21n0 () Int)
(declare-fun lam21n1 () Int)
(declare-fun lam22n0 () Int)
(declare-fun lam22n1 () Int)
(declare-fun main_x () Int)
(declare-fun undef3 () Int)
(declare-fun main_y () Int)
(declare-fun undef4 () Int)
(declare-fun main_tmp () Int)
(declare-fun main_xtmp () Int)
(declare-fun FV_main_x_5 () Int)
(declare-fun FV_main_y_5 () Int)
(declare-fun FV_main_tmp_5 () Int)
(declare-fun FV_main_xtmp_5 () Int)
(declare-fun lam23n0 () Int)
(declare-fun lam23n1 () Int)
(declare-fun lam23n2 () Int)
(declare-fun lam23n3 () Int)
(declare-fun lam23n4 () Int)
(declare-fun lam23n5 () Int)
(declare-fun lam24n0 () Int)
(declare-fun lam24n1 () Int)
(declare-fun lam24n2 () Int)
(declare-fun lam24n3 () Int)
(declare-fun lam24n4 () Int)
(declare-fun lam24n5 () Int)
(declare-fun lam25n0 () Int)
(declare-fun lam25n1 () Int)
(declare-fun lam25n2 () Int)
(declare-fun lam25n3 () Int)
(declare-fun lam25n4 () Int)
(declare-fun lam25n5 () Int)
(declare-fun lam26n0 () Int)
(declare-fun lam26n1 () Int)
(declare-fun lam26n2 () Int)
(declare-fun lam26n3 () Int)
(declare-fun lam26n4 () Int)
(declare-fun lam26n5 () Int)
(declare-fun FV_main_x_6 () Int)
(declare-fun FV_main_y_6 () Int)
(declare-fun FV_main_tmp_6 () Int)
(declare-fun FV_main_xtmp_6 () Int)
(declare-fun FV_main_y_7 () Int)
(declare-fun FV_main_xtmp_7 () Int)
(declare-fun FV_main_x_7 () Int)
(declare-fun FV_main_tmp_7 () Int)
(assert ( and ( <= ( - 1 ) Nl2main_x1 ) ( <= Nl2main_x1 1 ) ( <= ( - 1 ) Nl2main_y1 ) ( <= Nl2main_y1 1 ) ( <= ( - 1 ) Nl2main_tmp1 ) ( <= Nl2main_tmp1 1 ) ( <= ( - 1 ) Nl2main_xtmp1 ) ( <= Nl2main_xtmp1 1 ) ( <= ( - 1 ) Nl10main_x1 ) ( <= Nl10main_x1 1 ) ( <= ( - 1 ) Nl10main_y1 ) ( <= Nl10main_y1 1 ) ( <= ( - 1 ) Nl10main_tmp1 ) ( <= Nl10main_tmp1 1 ) ( <= ( - 1 ) Nl10main_xtmp1 ) ( <= Nl10main_xtmp1 1 ) ( <= ( - 1 ) Nl2main_x2 ) ( <= Nl2main_x2 1 ) ( <= ( - 1 ) Nl2main_y2 ) ( <= Nl2main_y2 1 ) ( <= ( - 1 ) Nl2main_tmp2 ) ( <= Nl2main_tmp2 1 ) ( <= ( - 1 ) Nl2main_xtmp2 ) ( <= Nl2main_xtmp2 1 ) ( <= ( - 1 ) Nl10main_x2 ) ( <= Nl10main_x2 1 ) ( <= ( - 1 ) Nl10main_y2 ) ( <= Nl10main_y2 1 ) ( <= ( - 1 ) Nl10main_tmp2 ) ( <= Nl10main_tmp2 1 ) ( <= ( - 1 ) Nl10main_xtmp2 ) ( <= Nl10main_xtmp2 1 ) ( <= ( - 1 ) Nl2main_x3 ) ( <= Nl2main_x3 1 ) ( <= ( - 1 ) Nl2main_y3 ) ( <= Nl2main_y3 1 ) ( <= ( - 1 ) Nl2main_tmp3 ) ( <= Nl2main_tmp3 1 ) ( <= ( - 1 ) Nl2main_xtmp3 ) ( <= Nl2main_xtmp3 1 ) ( <= ( - 1 ) Nl10main_x3 ) ( <= Nl10main_x3 1 ) ( <= ( - 1 ) Nl10main_y3 ) ( <= Nl10main_y3 1 ) ( <= ( - 1 ) Nl10main_tmp3 ) ( <= Nl10main_tmp3 1 ) ( <= ( - 1 ) Nl10main_xtmp3 ) ( <= Nl10main_xtmp3 1 ) ))
(assert ( or ( and ( >= lam0n0 0 ) ( >= lam0n1 0 ) ( >= lam0n3 0 ) ( >= lam0n4 0 ) ( >= lam0n5 0 ) ( > ( + ( * 1 lam0n1 ) ( * Nl2CT1 lam0n3 ) ( * Nl2CT2 lam0n4 ) ( * Nl2CT3 lam0n5 ) ( - 1 ) ) 0 ) ( = ( + ( * ( - 1 ) lam0n0 ) ( * 1 lam0n2 ) ( * Nl2main_x1 lam0n3 ) ( * Nl2main_x2 lam0n4 ) ( * Nl2main_x3 lam0n5 ) ) 0 ) ( = ( + ( * ( - 1 ) lam0n1 ) ( * ( - 1 ) lam0n2 ) ( * Nl2main_y1 lam0n3 ) ( * Nl2main_y2 lam0n4 ) ( * Nl2main_y3 lam0n5 ) ) 0 ) ( = ( + ( * Nl2main_tmp1 lam0n3 ) ( * Nl2main_tmp2 lam0n4 ) ( * Nl2main_tmp3 lam0n5 ) ) 0 ) ( = ( + ( * Nl2main_xtmp1 lam0n3 ) ( * Nl2main_xtmp2 lam0n4 ) ( * Nl2main_xtmp3 lam0n5 ) ) 0 ) ) ( and ( >= lam1n0 0 ) ( >= lam1n1 0 ) ( >= lam1n3 0 ) ( >= lam1n4 0 ) ( >= lam1n5 0 ) ( > ( + ( * 1 lam1n1 ) ( * Nl2CT1 lam1n3 ) ( * Nl2CT2 lam1n4 ) ( * Nl2CT3 lam1n5 ) ( - 1 ( + ( + ( + ( + Nl2CT1 ( * Nl2main_x1 0 ) ) ( * Nl2main_y1 0 ) ) ( * Nl2main_tmp1 0 ) ) ( * Nl2main_xtmp1 0 ) ) ) ) 0 ) ( = ( + ( * ( - 1 ) lam1n0 ) ( * 1 lam1n2 ) ( * Nl2main_x1 lam1n3 ) ( * Nl2main_x2 lam1n4 ) ( * Nl2main_x3 lam1n5 ) ( - ( + ( + 0 ( * Nl2main_y1 1 ) ) ( * Nl2main_xtmp1 1 ) ) ) ) 0 ) ( = ( + ( * ( - 1 ) lam1n1 ) ( * ( - 1 ) lam1n2 ) ( * Nl2main_y1 lam1n3 ) ( * Nl2main_y2 lam1n4 ) ( * Nl2main_y3 lam1n5 ) ( - ( + ( + 0 ( * Nl2main_x1 1 ) ) ( * Nl2main_tmp1 1 ) ) ) ) 0 ) ( = ( + ( * Nl2main_tmp1 lam1n3 ) ( * Nl2main_tmp2 lam1n4 ) ( * Nl2main_tmp3 lam1n5 ) ) 0 ) ( = ( + ( * Nl2main_xtmp1 lam1n3 ) ( * Nl2main_xtmp2 lam1n4 ) ( * Nl2main_xtmp3 lam1n5 ) ) 0 ) ) ))
(assert ( or ( and ( >= lam0n0 0 ) ( >= lam0n1 0 ) ( >= lam0n3 0 ) ( >= lam0n4 0 ) ( >= lam0n5 0 ) ( > ( + ( * 1 lam0n1 ) ( * Nl2CT1 lam0n3 ) ( * Nl2CT2 lam0n4 ) ( * Nl2CT3 lam0n5 ) ( - 1 ) ) 0 ) ( = ( + ( * ( - 1 ) lam0n0 ) ( * 1 lam0n2 ) ( * Nl2main_x1 lam0n3 ) ( * Nl2main_x2 lam0n4 ) ( * Nl2main_x3 lam0n5 ) ) 0 ) ( = ( + ( * ( - 1 ) lam0n1 ) ( * ( - 1 ) lam0n2 ) ( * Nl2main_y1 lam0n3 ) ( * Nl2main_y2 lam0n4 ) ( * Nl2main_y3 lam0n5 ) ) 0 ) ( = ( + ( * Nl2main_tmp1 lam0n3 ) ( * Nl2main_tmp2 lam0n4 ) ( * Nl2main_tmp3 lam0n5 ) ) 0 ) ( = ( + ( * Nl2main_xtmp1 lam0n3 ) ( * Nl2main_xtmp2 lam0n4 ) ( * Nl2main_xtmp3 lam0n5 ) ) 0 ) ) ( and ( >= lam2n0 0 ) ( >= lam2n1 0 ) ( >= lam2n3 0 ) ( >= lam2n4 0 ) ( >= lam2n5 0 ) ( > ( + ( * 1 lam2n1 ) ( * Nl2CT1 lam2n3 ) ( * Nl2CT2 lam2n4 ) ( * Nl2CT3 lam2n5 ) ( - 1 ( + ( + ( + ( + Nl2CT2 ( * Nl2main_x2 0 ) ) ( * Nl2main_y2 0 ) ) ( * Nl2main_tmp2 0 ) ) ( * Nl2main_xtmp2 0 ) ) ) ) 0 ) ( = ( + ( * ( - 1 ) lam2n0 ) ( * 1 lam2n2 ) ( * Nl2main_x1 lam2n3 ) ( * Nl2main_x2 lam2n4 ) ( * Nl2main_x3 lam2n5 ) ( - ( + ( + 0 ( * Nl2main_y2 1 ) ) ( * Nl2main_xtmp2 1 ) ) ) ) 0 ) ( = ( + ( * ( - 1 ) lam2n1 ) ( * ( - 1 ) lam2n2 ) ( * Nl2main_y1 lam2n3 ) ( * Nl2main_y2 lam2n4 ) ( * Nl2main_y3 lam2n5 ) ( - ( + ( + 0 ( * Nl2main_x2 1 ) ) ( * Nl2main_tmp2 1 ) ) ) ) 0 ) ( = ( + ( * Nl2main_tmp1 lam2n3 ) ( * Nl2main_tmp2 lam2n4 ) ( * Nl2main_tmp3 lam2n5 ) ) 0 ) ( = ( + ( * Nl2main_xtmp1 lam2n3 ) ( * Nl2main_xtmp2 lam2n4 ) ( * Nl2main_xtmp3 lam2n5 ) ) 0 ) ) ))
(assert ( or ( and ( >= lam0n0 0 ) ( >= lam0n1 0 ) ( >= lam0n3 0 ) ( >= lam0n4 0 ) ( >= lam0n5 0 ) ( > ( + ( * 1 lam0n1 ) ( * Nl2CT1 lam0n3 ) ( * Nl2CT2 lam0n4 ) ( * Nl2CT3 lam0n5 ) ( - 1 ) ) 0 ) ( = ( + ( * ( - 1 ) lam0n0 ) ( * 1 lam0n2 ) ( * Nl2main_x1 lam0n3 ) ( * Nl2main_x2 lam0n4 ) ( * Nl2main_x3 lam0n5 ) ) 0 ) ( = ( + ( * ( - 1 ) lam0n1 ) ( * ( - 1 ) lam0n2 ) ( * Nl2main_y1 lam0n3 ) ( * Nl2main_y2 lam0n4 ) ( * Nl2main_y3 lam0n5 ) ) 0 ) ( = ( + ( * Nl2main_tmp1 lam0n3 ) ( * Nl2main_tmp2 lam0n4 ) ( * Nl2main_tmp3 lam0n5 ) ) 0 ) ( = ( + ( * Nl2main_xtmp1 lam0n3 ) ( * Nl2main_xtmp2 lam0n4 ) ( * Nl2main_xtmp3 lam0n5 ) ) 0 ) ) ( and ( >= lam3n0 0 ) ( >= lam3n1 0 ) ( >= lam3n3 0 ) ( >= lam3n4 0 ) ( >= lam3n5 0 ) ( > ( + ( * 1 lam3n1 ) ( * Nl2CT1 lam3n3 ) ( * Nl2CT2 lam3n4 ) ( * Nl2CT3 lam3n5 ) ( - 1 ( + ( + ( + ( + Nl2CT3 ( * Nl2main_x3 0 ) ) ( * Nl2main_y3 0 ) ) ( * Nl2main_tmp3 0 ) ) ( * Nl2main_xtmp3 0 ) ) ) ) 0 ) ( = ( + ( * ( - 1 ) lam3n0 ) ( * 1 lam3n2 ) ( * Nl2main_x1 lam3n3 ) ( * Nl2main_x2 lam3n4 ) ( * Nl2main_x3 lam3n5 ) ( - ( + ( + 0 ( * Nl2main_y3 1 ) ) ( * Nl2main_xtmp3 1 ) ) ) ) 0 ) ( = ( + ( * ( - 1 ) lam3n1 ) ( * ( - 1 ) lam3n2 ) ( * Nl2main_y1 lam3n3 ) ( * Nl2main_y2 lam3n4 ) ( * Nl2main_y3 lam3n5 ) ( - ( + ( + 0 ( * Nl2main_x3 1 ) ) ( * Nl2main_tmp3 1 ) ) ) ) 0 ) ( = ( + ( * Nl2main_tmp1 lam3n3 ) ( * Nl2main_tmp2 lam3n4 ) ( * Nl2main_tmp3 lam3n5 ) ) 0 ) ( = ( + ( * Nl2main_xtmp1 lam3n3 ) ( * Nl2main_xtmp2 lam3n4 ) ( * Nl2main_xtmp3 lam3n5 ) ) 0 ) ) ))
(assert ( or ( and ( >= lam4n0 0 ) ( >= lam4n1 0 ) ( >= lam4n2 0 ) ( >= lam4n3 0 ) ( >= lam4n4 0 ) ( >= lam4n5 0 ) ( > ( + ( * 1 lam4n1 ) ( * 1 lam4n2 ) ( * Nl2CT1 lam4n3 ) ( * Nl2CT2 lam4n4 ) ( * Nl2CT3 lam4n5 ) ( - 1 ) ) 0 ) ( = ( + ( * ( - 1 ) lam4n0 ) ( * 1 lam4n1 ) ( * Nl2main_x1 lam4n3 ) ( * Nl2main_x2 lam4n4 ) ( * Nl2main_x3 lam4n5 ) ) 0 ) ( = ( + ( * ( - 1 ) lam4n1 ) ( * ( - 1 ) lam4n2 ) ( * Nl2main_y1 lam4n3 ) ( * Nl2main_y2 lam4n4 ) ( * Nl2main_y3 lam4n5 ) ) 0 ) ( = ( + ( * Nl2main_tmp1 lam4n3 ) ( * Nl2main_tmp2 lam4n4 ) ( * Nl2main_tmp3 lam4n5 ) ) 0 ) ( = ( + ( * Nl2main_xtmp1 lam4n3 ) ( * Nl2main_xtmp2 lam4n4 ) ( * Nl2main_xtmp3 lam4n5 ) ) 0 ) ) ( and ( >= lam5n0 0 ) ( >= lam5n1 0 ) ( >= lam5n2 0 ) ( >= lam5n3 0 ) ( >= lam5n4 0 ) ( >= lam5n5 0 ) ( > ( + ( * 1 lam5n1 ) ( * 1 lam5n2 ) ( * Nl2CT1 lam5n3 ) ( * Nl2CT2 lam5n4 ) ( * Nl2CT3 lam5n5 ) ( - 1 ( + ( + Nl10CT1 ( * Nl10main_tmp1 0 ) ) ( * Nl10main_xtmp1 0 ) ) ) ) 0 ) ( = ( + ( * ( - 1 ) lam5n0 ) ( * 1 lam5n1 ) ( * Nl2main_x1 lam5n3 ) ( * Nl2main_x2 lam5n4 ) ( * Nl2main_x3 lam5n5 ) ( - ( + ( + 0 Nl10main_x1 ) ( * Nl10main_xtmp1 1 ) ) ) ) 0 ) ( = ( + ( * ( - 1 ) lam5n1 ) ( * ( - 1 ) lam5n2 ) ( * Nl2main_y1 lam5n3 ) ( * Nl2main_y2 lam5n4 ) ( * Nl2main_y3 lam5n5 ) ( - ( + ( + 0 Nl10main_y1 ) ( * Nl10main_tmp1 1 ) ) ) ) 0 ) ( = ( + ( * Nl2main_tmp1 lam5n3 ) ( * Nl2main_tmp2 lam5n4 ) ( * Nl2main_tmp3 lam5n5 ) ) 0 ) ( = ( + ( * Nl2main_xtmp1 lam5n3 ) ( * Nl2main_xtmp2 lam5n4 ) ( * Nl2main_xtmp3 lam5n5 ) ) 0 ) ) ))
(assert ( or ( and ( >= lam4n0 0 ) ( >= lam4n1 0 ) ( >= lam4n2 0 ) ( >= lam4n3 0 ) ( >= lam4n4 0 ) ( >= lam4n5 0 ) ( > ( + ( * 1 lam4n1 ) ( * 1 lam4n2 ) ( * Nl2CT1 lam4n3 ) ( * Nl2CT2 lam4n4 ) ( * Nl2CT3 lam4n5 ) ( - 1 ) ) 0 ) ( = ( + ( * ( - 1 ) lam4n0 ) ( * 1 lam4n1 ) ( * Nl2main_x1 lam4n3 ) ( * Nl2main_x2 lam4n4 ) ( * Nl2main_x3 lam4n5 ) ) 0 ) ( = ( + ( * ( - 1 ) lam4n1 ) ( * ( - 1 ) lam4n2 ) ( * Nl2main_y1 lam4n3 ) ( * Nl2main_y2 lam4n4 ) ( * Nl2main_y3 lam4n5 ) ) 0 ) ( = ( + ( * Nl2main_tmp1 lam4n3 ) ( * Nl2main_tmp2 lam4n4 ) ( * Nl2main_tmp3 lam4n5 ) ) 0 ) ( = ( + ( * Nl2main_xtmp1 lam4n3 ) ( * Nl2main_xtmp2 lam4n4 ) ( * Nl2main_xtmp3 lam4n5 ) ) 0 ) ) ( and ( >= lam6n0 0 ) ( >= lam6n1 0 ) ( >= lam6n2 0 ) ( >= lam6n3 0 ) ( >= lam6n4 0 ) ( >= lam6n5 0 ) ( > ( + ( * 1 lam6n1 ) ( * 1 lam6n2 ) ( * Nl2CT1 lam6n3 ) ( * Nl2CT2 lam6n4 ) ( * Nl2CT3 lam6n5 ) ( - 1 ( + ( + Nl10CT2 ( * Nl10main_tmp2 0 ) ) ( * Nl10main_xtmp2 0 ) ) ) ) 0 ) ( = ( + ( * ( - 1 ) lam6n0 ) ( * 1 lam6n1 ) ( * Nl2main_x1 lam6n3 ) ( * Nl2main_x2 lam6n4 ) ( * Nl2main_x3 lam6n5 ) ( - ( + ( + 0 Nl10main_x2 ) ( * Nl10main_xtmp2 1 ) ) ) ) 0 ) ( = ( + ( * ( - 1 ) lam6n1 ) ( * ( - 1 ) lam6n2 ) ( * Nl2main_y1 lam6n3 ) ( * Nl2main_y2 lam6n4 ) ( * Nl2main_y3 lam6n5 ) ( - ( + ( + 0 Nl10main_y2 ) ( * Nl10main_tmp2 1 ) ) ) ) 0 ) ( = ( + ( * Nl2main_tmp1 lam6n3 ) ( * Nl2main_tmp2 lam6n4 ) ( * Nl2main_tmp3 lam6n5 ) ) 0 ) ( = ( + ( * Nl2main_xtmp1 lam6n3 ) ( * Nl2main_xtmp2 lam6n4 ) ( * Nl2main_xtmp3 lam6n5 ) ) 0 ) ) ))
(assert ( or ( and ( >= lam4n0 0 ) ( >= lam4n1 0 ) ( >= lam4n2 0 ) ( >= lam4n3 0 ) ( >= lam4n4 0 ) ( >= lam4n5 0 ) ( > ( + ( * 1 lam4n1 ) ( * 1 lam4n2 ) ( * Nl2CT1 lam4n3 ) ( * Nl2CT2 lam4n4 ) ( * Nl2CT3 lam4n5 ) ( - 1 ) ) 0 ) ( = ( + ( * ( - 1 ) lam4n0 ) ( * 1 lam4n1 ) ( * Nl2main_x1 lam4n3 ) ( * Nl2main_x2 lam4n4 ) ( * Nl2main_x3 lam4n5 ) ) 0 ) ( = ( + ( * ( - 1 ) lam4n1 ) ( * ( - 1 ) lam4n2 ) ( * Nl2main_y1 lam4n3 ) ( * Nl2main_y2 lam4n4 ) ( * Nl2main_y3 lam4n5 ) ) 0 ) ( = ( + ( * Nl2main_tmp1 lam4n3 ) ( * Nl2main_tmp2 lam4n4 ) ( * Nl2main_tmp3 lam4n5 ) ) 0 ) ( = ( + ( * Nl2main_xtmp1 lam4n3 ) ( * Nl2main_xtmp2 lam4n4 ) ( * Nl2main_xtmp3 lam4n5 ) ) 0 ) ) ( and ( >= lam7n0 0 ) ( >= lam7n1 0 ) ( >= lam7n2 0 ) ( >= lam7n3 0 ) ( >= lam7n4 0 ) ( >= lam7n5 0 ) ( > ( + ( * 1 lam7n1 ) ( * 1 lam7n2 ) ( * Nl2CT1 lam7n3 ) ( * Nl2CT2 lam7n4 ) ( * Nl2CT3 lam7n5 ) ( - 1 ( + ( + Nl10CT3 ( * Nl10main_tmp3 0 ) ) ( * Nl10main_xtmp3 0 ) ) ) ) 0 ) ( = ( + ( * ( - 1 ) lam7n0 ) ( * 1 lam7n1 ) ( * Nl2main_x1 lam7n3 ) ( * Nl2main_x2 lam7n4 ) ( * Nl2main_x3 lam7n5 ) ( - ( + ( + 0 Nl10main_x3 ) ( * Nl10main_xtmp3 1 ) ) ) ) 0 ) ( = ( + ( * ( - 1 ) lam7n1 ) ( * ( - 1 ) lam7n2 ) ( * Nl2main_y1 lam7n3 ) ( * Nl2main_y2 lam7n4 ) ( * Nl2main_y3 lam7n5 ) ( - ( + ( + 0 Nl10main_y3 ) ( * Nl10main_tmp3 1 ) ) ) ) 0 ) ( = ( + ( * Nl2main_tmp1 lam7n3 ) ( * Nl2main_tmp2 lam7n4 ) ( * Nl2main_tmp3 lam7n5 ) ) 0 ) ( = ( + ( * Nl2main_xtmp1 lam7n3 ) ( * Nl2main_xtmp2 lam7n4 ) ( * Nl2main_xtmp3 lam7n5 ) ) 0 ) ) ))
(assert ( or ( and ( >= lam8n0 0 ) ( >= lam8n1 0 ) ( >= lam8n2 0 ) ( >= lam8n3 0 ) ( >= lam8n4 0 ) ( >= lam8n5 0 ) ( > ( + ( * 1 lam8n1 ) ( * 1 lam8n2 ) ( * Nl2CT1 lam8n3 ) ( * Nl2CT2 lam8n4 ) ( * Nl2CT3 lam8n5 ) ( - 1 ) ) 0 ) ( = ( + ( * ( - 1 ) lam8n0 ) ( * ( - 1 ) lam8n1 ) ( * Nl2main_x1 lam8n3 ) ( * Nl2main_x2 lam8n4 ) ( * Nl2main_x3 lam8n5 ) ) 0 ) ( = ( + ( * 1 lam8n1 ) ( * ( - 1 ) lam8n2 ) ( * Nl2main_y1 lam8n3 ) ( * Nl2main_y2 lam8n4 ) ( * Nl2main_y3 lam8n5 ) ) 0 ) ( = ( + ( * Nl2main_tmp1 lam8n3 ) ( * Nl2main_tmp2 lam8n4 ) ( * Nl2main_tmp3 lam8n5 ) ) 0 ) ( = ( + ( * Nl2main_xtmp1 lam8n3 ) ( * Nl2main_xtmp2 lam8n4 ) ( * Nl2main_xtmp3 lam8n5 ) ) 0 ) ) ( and ( >= lam9n0 0 ) ( >= lam9n1 0 ) ( >= lam9n2 0 ) ( >= lam9n3 0 ) ( >= lam9n4 0 ) ( >= lam9n5 0 ) ( > ( + ( * 1 lam9n1 ) ( * 1 lam9n2 ) ( * Nl2CT1 lam9n3 ) ( * Nl2CT2 lam9n4 ) ( * Nl2CT3 lam9n5 ) ( - 1 ( + ( + Nl10CT1 ( * Nl10main_tmp1 0 ) ) ( * Nl10main_xtmp1 0 ) ) ) ) 0 ) ( = ( + ( * ( - 1 ) lam9n0 ) ( * ( - 1 ) lam9n1 ) ( * Nl2main_x1 lam9n3 ) ( * Nl2main_x2 lam9n4 ) ( * Nl2main_x3 lam9n5 ) ( - ( + ( + 0 Nl10main_x1 ) ( * Nl10main_xtmp1 1 ) ) ) ) 0 ) ( = ( + ( * 1 lam9n1 ) ( * ( - 1 ) lam9n2 ) ( * Nl2main_y1 lam9n3 ) ( * Nl2main_y2 lam9n4 ) ( * Nl2main_y3 lam9n5 ) ( - ( + ( + 0 Nl10main_y1 ) ( * Nl10main_tmp1 1 ) ) ) ) 0 ) ( = ( + ( * Nl2main_tmp1 lam9n3 ) ( * Nl2main_tmp2 lam9n4 ) ( * Nl2main_tmp3 lam9n5 ) ) 0 ) ( = ( + ( * Nl2main_xtmp1 lam9n3 ) ( * Nl2main_xtmp2 lam9n4 ) ( * Nl2main_xtmp3 lam9n5 ) ) 0 ) ) ))
(assert ( or ( and ( >= lam8n0 0 ) ( >= lam8n1 0 ) ( >= lam8n2 0 ) ( >= lam8n3 0 ) ( >= lam8n4 0 ) ( >= lam8n5 0 ) ( > ( + ( * 1 lam8n1 ) ( * 1 lam8n2 ) ( * Nl2CT1 lam8n3 ) ( * Nl2CT2 lam8n4 ) ( * Nl2CT3 lam8n5 ) ( - 1 ) ) 0 ) ( = ( + ( * ( - 1 ) lam8n0 ) ( * ( - 1 ) lam8n1 ) ( * Nl2main_x1 lam8n3 ) ( * Nl2main_x2 lam8n4 ) ( * Nl2main_x3 lam8n5 ) ) 0 ) ( = ( + ( * 1 lam8n1 ) ( * ( - 1 ) lam8n2 ) ( * Nl2main_y1 lam8n3 ) ( * Nl2main_y2 lam8n4 ) ( * Nl2main_y3 lam8n5 ) ) 0 ) ( = ( + ( * Nl2main_tmp1 lam8n3 ) ( * Nl2main_tmp2 lam8n4 ) ( * Nl2main_tmp3 lam8n5 ) ) 0 ) ( = ( + ( * Nl2main_xtmp1 lam8n3 ) ( * Nl2main_xtmp2 lam8n4 ) ( * Nl2main_xtmp3 lam8n5 ) ) 0 ) ) ( and ( >= lam10n0 0 ) ( >= lam10n1 0 ) ( >= lam10n2 0 ) ( >= lam10n3 0 ) ( >= lam10n4 0 ) ( >= lam10n5 0 ) ( > ( + ( * 1 lam10n1 ) ( * 1 lam10n2 ) ( * Nl2CT1 lam10n3 ) ( * Nl2CT2 lam10n4 ) ( * Nl2CT3 lam10n5 ) ( - 1 ( + ( + Nl10CT2 ( * Nl10main_tmp2 0 ) ) ( * Nl10main_xtmp2 0 ) ) ) ) 0 ) ( = ( + ( * ( - 1 ) lam10n0 ) ( * ( - 1 ) lam10n1 ) ( * Nl2main_x1 lam10n3 ) ( * Nl2main_x2 lam10n4 ) ( * Nl2main_x3 lam10n5 ) ( - ( + ( + 0 Nl10main_x2 ) ( * Nl10main_xtmp2 1 ) ) ) ) 0 ) ( = ( + ( * 1 lam10n1 ) ( * ( - 1 ) lam10n2 ) ( * Nl2main_y1 lam10n3 ) ( * Nl2main_y2 lam10n4 ) ( * Nl2main_y3 lam10n5 ) ( - ( + ( + 0 Nl10main_y2 ) ( * Nl10main_tmp2 1 ) ) ) ) 0 ) ( = ( + ( * Nl2main_tmp1 lam10n3 ) ( * Nl2main_tmp2 lam10n4 ) ( * Nl2main_tmp3 lam10n5 ) ) 0 ) ( = ( + ( * Nl2main_xtmp1 lam10n3 ) ( * Nl2main_xtmp2 lam10n4 ) ( * Nl2main_xtmp3 lam10n5 ) ) 0 ) ) ))
(assert ( or ( and ( >= lam8n0 0 ) ( >= lam8n1 0 ) ( >= lam8n2 0 ) ( >= lam8n3 0 ) ( >= lam8n4 0 ) ( >= lam8n5 0 ) ( > ( + ( * 1 lam8n1 ) ( * 1 lam8n2 ) ( * Nl2CT1 lam8n3 ) ( * Nl2CT2 lam8n4 ) ( * Nl2CT3 lam8n5 ) ( - 1 ) ) 0 ) ( = ( + ( * ( - 1 ) lam8n0 ) ( * ( - 1 ) lam8n1 ) ( * Nl2main_x1 lam8n3 ) ( * Nl2main_x2 lam8n4 ) ( * Nl2main_x3 lam8n5 ) ) 0 ) ( = ( + ( * 1 lam8n1 ) ( * ( - 1 ) lam8n2 ) ( * Nl2main_y1 lam8n3 ) ( * Nl2main_y2 lam8n4 ) ( * Nl2main_y3 lam8n5 ) ) 0 ) ( = ( + ( * Nl2main_tmp1 lam8n3 ) ( * Nl2main_tmp2 lam8n4 ) ( * Nl2main_tmp3 lam8n5 ) ) 0 ) ( = ( + ( * Nl2main_xtmp1 lam8n3 ) ( * Nl2main_xtmp2 lam8n4 ) ( * Nl2main_xtmp3 lam8n5 ) ) 0 ) ) ( and ( >= lam11n0 0 ) ( >= lam11n1 0 ) ( >= lam11n2 0 ) ( >= lam11n3 0 ) ( >= lam11n4 0 ) ( >= lam11n5 0 ) ( > ( + ( * 1 lam11n1 ) ( * 1 lam11n2 ) ( * Nl2CT1 lam11n3 ) ( * Nl2CT2 lam11n4 ) ( * Nl2CT3 lam11n5 ) ( - 1 ( + ( + Nl10CT3 ( * Nl10main_tmp3 0 ) ) ( * Nl10main_xtmp3 0 ) ) ) ) 0 ) ( = ( + ( * ( - 1 ) lam11n0 ) ( * ( - 1 ) lam11n1 ) ( * Nl2main_x1 lam11n3 ) ( * Nl2main_x2 lam11n4 ) ( * Nl2main_x3 lam11n5 ) ( - ( + ( + 0 Nl10main_x3 ) ( * Nl10main_xtmp3 1 ) ) ) ) 0 ) ( = ( + ( * 1 lam11n1 ) ( * ( - 1 ) lam11n2 ) ( * Nl2main_y1 lam11n3 ) ( * Nl2main_y2 lam11n4 ) ( * Nl2main_y3 lam11n5 ) ( - ( + ( + 0 Nl10main_y3 ) ( * Nl10main_tmp3 1 ) ) ) ) 0 ) ( = ( + ( * Nl2main_tmp1 lam11n3 ) ( * Nl2main_tmp2 lam11n4 ) ( * Nl2main_tmp3 lam11n5 ) ) 0 ) ( = ( + ( * Nl2main_xtmp1 lam11n3 ) ( * Nl2main_xtmp2 lam11n4 ) ( * Nl2main_xtmp3 lam11n5 ) ) 0 ) ) ))
(assert ( or ( and ( >= lam12n0 0 ) ( >= lam12n1 0 ) ( >= lam12n2 0 ) ( >= lam12n3 0 ) ( >= lam12n4 0 ) ( > ( + ( * 1 lam12n1 ) ( * Nl10CT1 lam12n2 ) ( * Nl10CT2 lam12n3 ) ( * Nl10CT3 lam12n4 ) ( - 1 ) ) 0 ) ( = ( + ( * Nl10main_x1 lam12n2 ) ( * Nl10main_x2 lam12n3 ) ( * Nl10main_x3 lam12n4 ) ) 0 ) ( = ( + ( * 1 lam12n1 ) ( * Nl10main_y1 lam12n2 ) ( * Nl10main_y2 lam12n3 ) ( * Nl10main_y3 lam12n4 ) ) 0 ) ( = ( + ( * Nl10main_tmp1 lam12n2 ) ( * Nl10main_tmp2 lam12n3 ) ( * Nl10main_tmp3 lam12n4 ) ) 0 ) ( = ( + ( * ( - 1 ) lam12n1 ) ( * Nl10main_xtmp1 lam12n2 ) ( * Nl10main_xtmp2 lam12n3 ) ( * Nl10main_xtmp3 lam12n4 ) ) 0 ) ) ( and ( >= lam13n0 0 ) ( >= lam13n1 0 ) ( >= lam13n2 0 ) ( >= lam13n3 0 ) ( >= lam13n4 0 ) ( > ( + ( * 1 lam13n1 ) ( * Nl10CT1 lam13n2 ) ( * Nl10CT2 lam13n3 ) ( * Nl10CT3 lam13n4 ) ( - 1 ( + Nl10CT1 ( * Nl10main_xtmp1 0 ) ) ) ) 0 ) ( = ( + ( * Nl10main_x1 lam13n2 ) ( * Nl10main_x2 lam13n3 ) ( * Nl10main_x3 lam13n4 ) ( - ( + 0 Nl10main_x1 ) ) ) 0 ) ( = ( + ( * 1 lam13n1 ) ( * Nl10main_y1 lam13n2 ) ( * Nl10main_y2 lam13n3 ) ( * Nl10main_y3 lam13n4 ) ( - ( + ( + 0 Nl10main_y1 ) ( * Nl10main_xtmp1 ( - 1 ) ) ) ) ) 0 ) ( = ( + ( * Nl10main_tmp1 lam13n2 ) ( * Nl10main_tmp2 lam13n3 ) ( * Nl10main_tmp3 lam13n4 ) ( - ( + 0 Nl10main_tmp1 ) ) ) 0 ) ( = ( + ( * ( - 1 ) lam13n1 ) ( * Nl10main_xtmp1 lam13n2 ) ( * Nl10main_xtmp2 lam13n3 ) ( * Nl10main_xtmp3 lam13n4 ) ( - ( + 0 ( * Nl10main_xtmp1 1 ) ) ) ) 0 ) ) ))
(assert ( or ( and ( >= lam12n0 0 ) ( >= lam12n1 0 ) ( >= lam12n2 0 ) ( >= lam12n3 0 ) ( >= lam12n4 0 ) ( > ( + ( * 1 lam12n1 ) ( * Nl10CT1 lam12n2 ) ( * Nl10CT2 lam12n3 ) ( * Nl10CT3 lam12n4 ) ( - 1 ) ) 0 ) ( = ( + ( * Nl10main_x1 lam12n2 ) ( * Nl10main_x2 lam12n3 ) ( * Nl10main_x3 lam12n4 ) ) 0 ) ( = ( + ( * 1 lam12n1 ) ( * Nl10main_y1 lam12n2 ) ( * Nl10main_y2 lam12n3 ) ( * Nl10main_y3 lam12n4 ) ) 0 ) ( = ( + ( * Nl10main_tmp1 lam12n2 ) ( * Nl10main_tmp2 lam12n3 ) ( * Nl10main_tmp3 lam12n4 ) ) 0 ) ( = ( + ( * ( - 1 ) lam12n1 ) ( * Nl10main_xtmp1 lam12n2 ) ( * Nl10main_xtmp2 lam12n3 ) ( * Nl10main_xtmp3 lam12n4 ) ) 0 ) ) ( and ( >= lam14n0 0 ) ( >= lam14n1 0 ) ( >= lam14n2 0 ) ( >= lam14n3 0 ) ( >= lam14n4 0 ) ( > ( + ( * 1 lam14n1 ) ( * Nl10CT1 lam14n2 ) ( * Nl10CT2 lam14n3 ) ( * Nl10CT3 lam14n4 ) ( - 1 ( + Nl10CT2 ( * Nl10main_xtmp2 0 ) ) ) ) 0 ) ( = ( + ( * Nl10main_x1 lam14n2 ) ( * Nl10main_x2 lam14n3 ) ( * Nl10main_x3 lam14n4 ) ( - ( + 0 Nl10main_x2 ) ) ) 0 ) ( = ( + ( * 1 lam14n1 ) ( * Nl10main_y1 lam14n2 ) ( * Nl10main_y2 lam14n3 ) ( * Nl10main_y3 lam14n4 ) ( - ( + ( + 0 Nl10main_y2 ) ( * Nl10main_xtmp2 ( - 1 ) ) ) ) ) 0 ) ( = ( + ( * Nl10main_tmp1 lam14n2 ) ( * Nl10main_tmp2 lam14n3 ) ( * Nl10main_tmp3 lam14n4 ) ( - ( + 0 Nl10main_tmp2 ) ) ) 0 ) ( = ( + ( * ( - 1 ) lam14n1 ) ( * Nl10main_xtmp1 lam14n2 ) ( * Nl10main_xtmp2 lam14n3 ) ( * Nl10main_xtmp3 lam14n4 ) ( - ( + 0 ( * Nl10main_xtmp2 1 ) ) ) ) 0 ) ) ))
(assert ( or ( and ( >= lam12n0 0 ) ( >= lam12n1 0 ) ( >= lam12n2 0 ) ( >= lam12n3 0 ) ( >= lam12n4 0 ) ( > ( + ( * 1 lam12n1 ) ( * Nl10CT1 lam12n2 ) ( * Nl10CT2 lam12n3 ) ( * Nl10CT3 lam12n4 ) ( - 1 ) ) 0 ) ( = ( + ( * Nl10main_x1 lam12n2 ) ( * Nl10main_x2 lam12n3 ) ( * Nl10main_x3 lam12n4 ) ) 0 ) ( = ( + ( * 1 lam12n1 ) ( * Nl10main_y1 lam12n2 ) ( * Nl10main_y2 lam12n3 ) ( * Nl10main_y3 lam12n4 ) ) 0 ) ( = ( + ( * Nl10main_tmp1 lam12n2 ) ( * Nl10main_tmp2 lam12n3 ) ( * Nl10main_tmp3 lam12n4 ) ) 0 ) ( = ( + ( * ( - 1 ) lam12n1 ) ( * Nl10main_xtmp1 lam12n2 ) ( * Nl10main_xtmp2 lam12n3 ) ( * Nl10main_xtmp3 lam12n4 ) ) 0 ) ) ( and ( >= lam15n0 0 ) ( >= lam15n1 0 ) ( >= lam15n2 0 ) ( >= lam15n3 0 ) ( >= lam15n4 0 ) ( > ( + ( * 1 lam15n1 ) ( * Nl10CT1 lam15n2 ) ( * Nl10CT2 lam15n3 ) ( * Nl10CT3 lam15n4 ) ( - 1 ( + Nl10CT3 ( * Nl10main_xtmp3 0 ) ) ) ) 0 ) ( = ( + ( * Nl10main_x1 lam15n2 ) ( * Nl10main_x2 lam15n3 ) ( * Nl10main_x3 lam15n4 ) ( - ( + 0 Nl10main_x3 ) ) ) 0 ) ( = ( + ( * 1 lam15n1 ) ( * Nl10main_y1 lam15n2 ) ( * Nl10main_y2 lam15n3 ) ( * Nl10main_y3 lam15n4 ) ( - ( + ( + 0 Nl10main_y3 ) ( * Nl10main_xtmp3 ( - 1 ) ) ) ) ) 0 ) ( = ( + ( * Nl10main_tmp1 lam15n2 ) ( * Nl10main_tmp2 lam15n3 ) ( * Nl10main_tmp3 lam15n4 ) ( - ( + 0 Nl10main_tmp3 ) ) ) 0 ) ( = ( + ( * ( - 1 ) lam15n1 ) ( * Nl10main_xtmp1 lam15n2 ) ( * Nl10main_xtmp2 lam15n3 ) ( * Nl10main_xtmp3 lam15n4 ) ( - ( + 0 ( * Nl10main_xtmp3 1 ) ) ) ) 0 ) ) ))
(assert ( or ( and ( >= lam16n0 0 ) ( >= lam16n1 0 ) ( >= lam16n2 0 ) ( >= lam16n3 0 ) ( >= lam16n4 0 ) ( > ( + ( * Nl10CT1 lam16n2 ) ( * Nl10CT2 lam16n3 ) ( * Nl10CT3 lam16n4 ) ( - 1 ) ) 0 ) ( = ( + ( * Nl10main_x1 lam16n2 ) ( * Nl10main_x2 lam16n3 ) ( * Nl10main_x3 lam16n4 ) ) 0 ) ( = ( + ( * ( - 1 ) lam16n1 ) ( * Nl10main_y1 lam16n2 ) ( * Nl10main_y2 lam16n3 ) ( * Nl10main_y3 lam16n4 ) ) 0 ) ( = ( + ( * Nl10main_tmp1 lam16n2 ) ( * Nl10main_tmp2 lam16n3 ) ( * Nl10main_tmp3 lam16n4 ) ) 0 ) ( = ( + ( * 1 lam16n1 ) ( * Nl10main_xtmp1 lam16n2 ) ( * Nl10main_xtmp2 lam16n3 ) ( * Nl10main_xtmp3 lam16n4 ) ) 0 ) ) ( and ( >= lam17n0 0 ) ( >= lam17n1 0 ) ( >= lam17n2 0 ) ( >= lam17n3 0 ) ( >= lam17n4 0 ) ( > ( + ( * Nl10CT1 lam17n2 ) ( * Nl10CT2 lam17n3 ) ( * Nl10CT3 lam17n4 ) ( - 1 ( + ( + Nl2CT1 ( * Nl2main_x1 0 ) ) ( * Nl2main_y1 0 ) ) ) ) 0 ) ( = ( + ( * Nl10main_x1 lam17n2 ) ( * Nl10main_x2 lam17n3 ) ( * Nl10main_x3 lam17n4 ) ) 0 ) ( = ( + ( * ( - 1 ) lam17n1 ) ( * Nl10main_y1 lam17n2 ) ( * Nl10main_y2 lam17n3 ) ( * Nl10main_y3 lam17n4 ) ) 0 ) ( = ( + ( * Nl10main_tmp1 lam17n2 ) ( * Nl10main_tmp2 lam17n3 ) ( * Nl10main_tmp3 lam17n4 ) ( - ( + ( + 0 ( * Nl2main_x1 1 ) ) Nl2main_tmp1 ) ) ) 0 ) ( = ( + ( * 1 lam17n1 ) ( * Nl10main_xtmp1 lam17n2 ) ( * Nl10main_xtmp2 lam17n3 ) ( * Nl10main_xtmp3 lam17n4 ) ( - ( + ( + 0 ( * Nl2main_y1 1 ) ) Nl2main_xtmp1 ) ) ) 0 ) ) ))
(assert ( or ( and ( >= lam16n0 0 ) ( >= lam16n1 0 ) ( >= lam16n2 0 ) ( >= lam16n3 0 ) ( >= lam16n4 0 ) ( > ( + ( * Nl10CT1 lam16n2 ) ( * Nl10CT2 lam16n3 ) ( * Nl10CT3 lam16n4 ) ( - 1 ) ) 0 ) ( = ( + ( * Nl10main_x1 lam16n2 ) ( * Nl10main_x2 lam16n3 ) ( * Nl10main_x3 lam16n4 ) ) 0 ) ( = ( + ( * ( - 1 ) lam16n1 ) ( * Nl10main_y1 lam16n2 ) ( * Nl10main_y2 lam16n3 ) ( * Nl10main_y3 lam16n4 ) ) 0 ) ( = ( + ( * Nl10main_tmp1 lam16n2 ) ( * Nl10main_tmp2 lam16n3 ) ( * Nl10main_tmp3 lam16n4 ) ) 0 ) ( = ( + ( * 1 lam16n1 ) ( * Nl10main_xtmp1 lam16n2 ) ( * Nl10main_xtmp2 lam16n3 ) ( * Nl10main_xtmp3 lam16n4 ) ) 0 ) ) ( and ( >= lam18n0 0 ) ( >= lam18n1 0 ) ( >= lam18n2 0 ) ( >= lam18n3 0 ) ( >= lam18n4 0 ) ( > ( + ( * Nl10CT1 lam18n2 ) ( * Nl10CT2 lam18n3 ) ( * Nl10CT3 lam18n4 ) ( - 1 ( + ( + Nl2CT2 ( * Nl2main_x2 0 ) ) ( * Nl2main_y2 0 ) ) ) ) 0 ) ( = ( + ( * Nl10main_x1 lam18n2 ) ( * Nl10main_x2 lam18n3 ) ( * Nl10main_x3 lam18n4 ) ) 0 ) ( = ( + ( * ( - 1 ) lam18n1 ) ( * Nl10main_y1 lam18n2 ) ( * Nl10main_y2 lam18n3 ) ( * Nl10main_y3 lam18n4 ) ) 0 ) ( = ( + ( * Nl10main_tmp1 lam18n2 ) ( * Nl10main_tmp2 lam18n3 ) ( * Nl10main_tmp3 lam18n4 ) ( - ( + ( + 0 ( * Nl2main_x2 1 ) ) Nl2main_tmp2 ) ) ) 0 ) ( = ( + ( * 1 lam18n1 ) ( * Nl10main_xtmp1 lam18n2 ) ( * Nl10main_xtmp2 lam18n3 ) ( * Nl10main_xtmp3 lam18n4 ) ( - ( + ( + 0 ( * Nl2main_y2 1 ) ) Nl2main_xtmp2 ) ) ) 0 ) ) ))
(assert ( or ( and ( >= lam16n0 0 ) ( >= lam16n1 0 ) ( >= lam16n2 0 ) ( >= lam16n3 0 ) ( >= lam16n4 0 ) ( > ( + ( * Nl10CT1 lam16n2 ) ( * Nl10CT2 lam16n3 ) ( * Nl10CT3 lam16n4 ) ( - 1 ) ) 0 ) ( = ( + ( * Nl10main_x1 lam16n2 ) ( * Nl10main_x2 lam16n3 ) ( * Nl10main_x3 lam16n4 ) ) 0 ) ( = ( + ( * ( - 1 ) lam16n1 ) ( * Nl10main_y1 lam16n2 ) ( * Nl10main_y2 lam16n3 ) ( * Nl10main_y3 lam16n4 ) ) 0 ) ( = ( + ( * Nl10main_tmp1 lam16n2 ) ( * Nl10main_tmp2 lam16n3 ) ( * Nl10main_tmp3 lam16n4 ) ) 0 ) ( = ( + ( * 1 lam16n1 ) ( * Nl10main_xtmp1 lam16n2 ) ( * Nl10main_xtmp2 lam16n3 ) ( * Nl10main_xtmp3 lam16n4 ) ) 0 ) ) ( and ( >= lam19n0 0 ) ( >= lam19n1 0 ) ( >= lam19n2 0 ) ( >= lam19n3 0 ) ( >= lam19n4 0 ) ( > ( + ( * Nl10CT1 lam19n2 ) ( * Nl10CT2 lam19n3 ) ( * Nl10CT3 lam19n4 ) ( - 1 ( + ( + Nl2CT3 ( * Nl2main_x3 0 ) ) ( * Nl2main_y3 0 ) ) ) ) 0 ) ( = ( + ( * Nl10main_x1 lam19n2 ) ( * Nl10main_x2 lam19n3 ) ( * Nl10main_x3 lam19n4 ) ) 0 ) ( = ( + ( * ( - 1 ) lam19n1 ) ( * Nl10main_y1 lam19n2 ) ( * Nl10main_y2 lam19n3 ) ( * Nl10main_y3 lam19n4 ) ) 0 ) ( = ( + ( * Nl10main_tmp1 lam19n2 ) ( * Nl10main_tmp2 lam19n3 ) ( * Nl10main_tmp3 lam19n4 ) ( - ( + ( + 0 ( * Nl2main_x3 1 ) ) Nl2main_tmp3 ) ) ) 0 ) ( = ( + ( * 1 lam19n1 ) ( * Nl10main_xtmp1 lam19n2 ) ( * Nl10main_xtmp2 lam19n3 ) ( * Nl10main_xtmp3 lam19n4 ) ( - ( + ( + 0 ( * Nl2main_y3 1 ) ) Nl2main_xtmp3 ) ) ) 0 ) ) ))
(assert ( and ( <= ( + Nl2CT1 ( * Nl2main_x1 FV_main_x_5 ) ( * Nl2main_y1 FV_main_y_5 ) ( * Nl2main_tmp1 FV_main_tmp_5 ) ( * Nl2main_xtmp1 FV_main_xtmp_5 ) ) 0 ) ( <= ( + Nl2CT2 ( * Nl2main_x2 FV_main_x_5 ) ( * Nl2main_y2 FV_main_y_5 ) ( * Nl2main_tmp2 FV_main_tmp_5 ) ( * Nl2main_xtmp2 FV_main_xtmp_5 ) ) 0 ) ( <= ( + Nl2CT3 ( * Nl2main_x3 FV_main_x_5 ) ( * Nl2main_y3 FV_main_y_5 ) ( * Nl2main_tmp3 FV_main_tmp_5 ) ( * Nl2main_xtmp3 FV_main_xtmp_5 ) ) 0 ) ))
(assert ( or ( and ( >= lam23n0 0 ) ( >= lam23n1 0 ) ( >= lam23n2 0 ) ( >= lam23n3 0 ) ( >= lam23n4 0 ) ( >= lam23n5 0 ) ( > ( + ( * Nl2CT1 lam23n3 ) ( * Nl2CT2 lam23n4 ) ( * Nl2CT3 lam23n5 ) ( - 1 ) ) 0 ) ( = ( + ( * ( - 1 ) lam23n0 ) ( * ( - 1 ) lam23n1 ) ( * Nl2main_x1 lam23n3 ) ( * Nl2main_x2 lam23n4 ) ( * Nl2main_x3 lam23n5 ) ) 0 ) ( = ( + ( * 1 lam23n1 ) ( * 1 lam23n2 ) ( * Nl2main_y1 lam23n3 ) ( * Nl2main_y2 lam23n4 ) ( * Nl2main_y3 lam23n5 ) ) 0 ) ( = ( + ( * Nl2main_tmp1 lam23n3 ) ( * Nl2main_tmp2 lam23n4 ) ( * Nl2main_tmp3 lam23n5 ) ) 0 ) ( = ( + ( * Nl2main_xtmp1 lam23n3 ) ( * Nl2main_xtmp2 lam23n4 ) ( * Nl2main_xtmp3 lam23n5 ) ) 0 ) ) ( and ( >= lam24n0 0 ) ( >= lam24n1 0 ) ( >= lam24n2 0 ) ( >= lam24n3 0 ) ( >= lam24n4 0 ) ( >= lam24n5 0 ) ( > ( + ( * 1 lam24n0 ) ( * 1 lam24n1 ) ( * 1 lam24n2 ) ( * Nl2CT1 lam24n3 ) ( * Nl2CT2 lam24n4 ) ( * Nl2CT3 lam24n5 ) ( - 1 ) ) 0 ) ( = ( + ( * 1 lam24n0 ) ( * 1 lam24n1 ) ( * Nl2main_x1 lam24n3 ) ( * Nl2main_x2 lam24n4 ) ( * Nl2main_x3 lam24n5 ) ) 0 ) ( = ( + ( * ( - 1 ) lam24n1 ) ( * ( - 1 ) lam24n2 ) ( * Nl2main_y1 lam24n3 ) ( * Nl2main_y2 lam24n4 ) ( * Nl2main_y3 lam24n5 ) ) 0 ) ( = ( + ( * Nl2main_tmp1 lam24n3 ) ( * Nl2main_tmp2 lam24n4 ) ( * Nl2main_tmp3 lam24n5 ) ) 0 ) ( = ( + ( * Nl2main_xtmp1 lam24n3 ) ( * Nl2main_xtmp2 lam24n4 ) ( * Nl2main_xtmp3 lam24n5 ) ) 0 ) ) ( and ( >= lam25n0 0 ) ( >= lam25n1 0 ) ( >= lam25n2 0 ) ( >= lam25n3 0 ) ( >= lam25n4 0 ) ( >= lam25n5 0 ) ( > ( + ( * 1 lam25n1 ) ( * 1 lam25n2 ) ( * Nl2CT1 lam25n3 ) ( * Nl2CT2 lam25n4 ) ( * Nl2CT3 lam25n5 ) ( - 1 ) ) 0 ) ( = ( + ( * 1 lam25n1 ) ( * ( - 1 ) lam25n2 ) ( * Nl2main_x1 lam25n3 ) ( * Nl2main_x2 lam25n4 ) ( * Nl2main_x3 lam25n5 ) ) 0 ) ( = ( + ( * 1 lam25n0 ) ( * 1 lam25n2 ) ( * Nl2main_y1 lam25n3 ) ( * Nl2main_y2 lam25n4 ) ( * Nl2main_y3 lam25n5 ) ) 0 ) ( = ( + ( * Nl2main_tmp1 lam25n3 ) ( * Nl2main_tmp2 lam25n4 ) ( * Nl2main_tmp3 lam25n5 ) ) 0 ) ( = ( + ( * Nl2main_xtmp1 lam25n3 ) ( * Nl2main_xtmp2 lam25n4 ) ( * Nl2main_xtmp3 lam25n5 ) ) 0 ) ) ( and ( >= lam26n0 0 ) ( >= lam26n1 0 ) ( >= lam26n2 0 ) ( >= lam26n3 0 ) ( >= lam26n4 0 ) ( >= lam26n5 0 ) ( > ( + ( * 1 lam26n2 ) ( * Nl2CT1 lam26n3 ) ( * Nl2CT2 lam26n4 ) ( * Nl2CT3 lam26n5 ) ( - 1 ) ) 0 ) ( = ( + ( * 1 lam26n0 ) ( * 1 lam26n2 ) ( * Nl2main_x1 lam26n3 ) ( * Nl2main_x2 lam26n4 ) ( * Nl2main_x3 lam26n5 ) ) 0 ) ( = ( + ( * ( - 1 ) lam26n0 ) ( * 1 lam26n1 ) ( * Nl2main_y1 lam26n3 ) ( * Nl2main_y2 lam26n4 ) ( * Nl2main_y3 lam26n5 ) ) 0 ) ( = ( + ( * Nl2main_tmp1 lam26n3 ) ( * Nl2main_tmp2 lam26n4 ) ( * Nl2main_tmp3 lam26n5 ) ) 0 ) ( = ( + ( * Nl2main_xtmp1 lam26n3 ) ( * Nl2main_xtmp2 lam26n4 ) ( * Nl2main_xtmp3 lam26n5 ) ) 0 ) ) ))
(assert ( and ( and ( <= ( + Nl2CT1 ( * Nl2main_x1 FV_main_x_6 ) ( * Nl2main_y1 FV_main_y_6 ) ( * Nl2main_tmp1 FV_main_tmp_6 ) ( * Nl2main_xtmp1 FV_main_xtmp_6 ) ) 0 ) ( <= ( + Nl2CT2 ( * Nl2main_x2 FV_main_x_6 ) ( * Nl2main_y2 FV_main_y_6 ) ( * Nl2main_tmp2 FV_main_tmp_6 ) ( * Nl2main_xtmp2 FV_main_xtmp_6 ) ) 0 ) ( <= ( + Nl2CT3 ( * Nl2main_x3 FV_main_x_6 ) ( * Nl2main_y3 FV_main_y_6 ) ( * Nl2main_tmp3 FV_main_tmp_6 ) ( * Nl2main_xtmp3 FV_main_xtmp_6 ) ) 0 ) ) ( or ( and ( <= ( * ( - 1 ) FV_main_x_6 ) 0 ) ( <= ( + 1 ( * ( - 1 ) FV_main_y_6 ) ) 0 ) ( = ( + FV_main_x_6 ( * ( - 1 ) FV_main_y_6 ) ) 0 ) ) ( and ( <= ( * ( - 1 ) FV_main_x_6 ) 0 ) ( <= ( + 1 FV_main_x_6 ( * ( - 1 ) FV_main_y_6 ) ) 0 ) ( <= ( + 1 ( * ( - 1 ) FV_main_y_6 ) ) 0 ) ) ( and ( <= ( * ( - 1 ) FV_main_x_6 ) 0 ) ( <= ( + 1 ( * ( - 1 ) FV_main_x_6 ) FV_main_y_6 ) 0 ) ( <= ( + 1 ( * ( - 1 ) FV_main_y_6 ) ) 0 ) ) ) ))
(assert ( and ( and ( <= ( + Nl10CT1 ( * Nl10main_y1 FV_main_y_7 ) ( * Nl10main_xtmp1 FV_main_xtmp_7 ) ( * Nl10main_x1 FV_main_x_7 ) ( * Nl10main_tmp1 FV_main_tmp_7 ) ) 0 ) ( <= ( + Nl10CT2 ( * Nl10main_y2 FV_main_y_7 ) ( * Nl10main_xtmp2 FV_main_xtmp_7 ) ( * Nl10main_x2 FV_main_x_7 ) ( * Nl10main_tmp2 FV_main_tmp_7 ) ) 0 ) ( <= ( + Nl10CT3 ( * Nl10main_y3 FV_main_y_7 ) ( * Nl10main_xtmp3 FV_main_xtmp_7 ) ( * Nl10main_x3 FV_main_x_7 ) ( * Nl10main_tmp3 FV_main_tmp_7 ) ) 0 ) ) ( or ( and ( <= 0 0 ) ( <= ( + 1 FV_main_y_7 ( * ( - 1 ) FV_main_xtmp_7 ) ) 0 ) ) ( and ( <= 0 0 ) ( <= ( + ( * ( - 1 ) FV_main_y_7 ) FV_main_xtmp_7 ) 0 ) ) ) ))
(check-sat)
(exit)
